(declare-fun e () String)
(declare-fun c () String)
(declare-fun g () String)
(declare-fun b () String)
(declare-fun f () String)
(declare-fun a () String)
(declare-fun h () String)
(assert (= (str.++ h e "e") (str.++ "bb" g c)))
(assert (= b (str.++ "d" c e)))
(assert (= (str.++ a "cb") f))

(check-sat)
